translation_toolchain/data/dzn/A013.dzn
k = 4;
b = 2;
AtomicConstraints =  [||];
DisjunctiveConstraints =  [||];
SoftAtomicConstraints =  [|
1, 2|
3, 4|];
DirectSuccessors =  [1,
2];
